# Node Net
920   1
1579   1
1281   1
1565   2
840   2
361   2
1320   3
161   3
1571   3
 14   4
 22   4
401   5
 40   5
  7   6
800   6
1562   7
1582   7
721   8
1481   8
  3   9
1586   9
1573  10
1594  10
1583  11
 35  11
521  12
 29  12
